proyfinal/src/viki/013/experimentInOfficeAgust.take6.output/840d94d8-7322-469d-8abb-717d807a3dcb.als.dat
{'cnf.clauses': '118081',
 'cnf.totvars': '69608',
 'conflict literals': '2',
 'conflicts': '3',
 'decisions': '3388',
 'memused.mb': '16.63',
 'outcome': 'UNSAT',
 'propagations': '24590',
 'restarts': '1',
 'solver.msecs': 34,
 'task.msecs': 83}
