proyfinal/src/viki/013/experimentInOfficeAgust.take6.output/840d94d8-7322-469d-8abb-717d807a3dcb.als.out
Reading from standard input... Use '--help' for help.
============================[ Problem Statistics ]=============================
|                                                                             |
|  Number of variables:         69608                                         |
|  Number of clauses:          118081                                         |
|  Parse time:                   0.03 s                                       |
|                                                                             |
============================[ Search Statistics ]==============================
| Conflicts |          ORIGINAL         |          LEARNT          | Progress |
|           |    Vars  Clauses Literals |    Limit  Clauses Lit/Cl |          |
===============================================================================
===============================================================================
restarts              : 1
conflicts             : 3              (86 /sec)
decisions             : 3388           (0.00 % random) (96911 /sec)
propagations          : 24590          (703375 /sec)
conflict literals     : 2              (0.00 % deleted)
Memory used           : 16.63 MB
CPU time              : 0.03496 s

UNSATISFIABLE
